\ This file has been generated by DOcplex
\ ENCODING=ISO-8859-1
\Problem name: dectiger problem

Maximize
 obj: 11.310000000000 aj_u0_x0 - 41.500000000000 aj_u1_x0
      + 13.500000000000 aj_u2_x0 - 41.500000000000 aj_u3_x0 - 16 aj_u4_x0
      - 41 aj_u5_x0 + 13.500000000000 aj_u6_x0 - 41 aj_u7_x0 + 19 aj_u8_x0
      + 11.310000000000 aj_u0_x1 + 13.500000000000 aj_u1_x1
      - 41.500000000000 aj_u2_x1 + 13.500000000000 aj_u3_x1 + 19 aj_u4_x1
      - 41 aj_u5_x1 - 41.500000000000 aj_u6_x1 - 41 aj_u7_x1 - 16 aj_u8_x1
Subject To
 c1: 22.620000000000 aj_u0_x0 - 83 aj_u1_x0 + 27 aj_u2_x0 - 83 aj_u3_x0
     - 32 aj_u4_x0 - 82 aj_u5_x0 + 27 aj_u6_x0 - 82 aj_u7_x0 + 38 aj_u8_x0
     - 22.620000000000 a0_u0 + 83 a0_u1 - 27 a0_u2 >= 0
 c2: 22.620000000000 aj_u0_x0 - 83 aj_u1_x0 + 27 aj_u2_x0 - 83 aj_u3_x0
     - 32 aj_u4_x0 - 82 aj_u5_x0 + 27 aj_u6_x0 - 82 aj_u7_x0 + 38 aj_u8_x0
     + 83 a0_u0 + 32 a0_u1 + 82 a0_u2 >= 0
 c3: 22.620000000000 aj_u0_x0 - 83 aj_u1_x0 + 27 aj_u2_x0 - 83 aj_u3_x0
     - 32 aj_u4_x0 - 82 aj_u5_x0 + 27 aj_u6_x0 - 82 aj_u7_x0 + 38 aj_u8_x0
     - 27 a0_u0 + 82 a0_u1 - 38 a0_u2 >= 0
 c4: 22.620000000000 aj_u0_x1 + 27 aj_u1_x1 - 83 aj_u2_x1 + 27 aj_u3_x1
     + 38 aj_u4_x1 - 82 aj_u5_x1 - 83 aj_u6_x1 - 82 aj_u7_x1 - 32 aj_u8_x1
     - 22.620000000000 a0_u0 - 27 a0_u1 + 83 a0_u2 >= 0
 c5: 22.620000000000 aj_u0_x1 + 27 aj_u1_x1 - 83 aj_u2_x1 + 27 aj_u3_x1
     + 38 aj_u4_x1 - 82 aj_u5_x1 - 83 aj_u6_x1 - 82 aj_u7_x1 - 32 aj_u8_x1
     - 27 a0_u0 - 38 a0_u1 + 82 a0_u2 >= 0
 c6: 22.620000000000 aj_u0_x1 + 27 aj_u1_x1 - 83 aj_u2_x1 + 27 aj_u3_x1
     + 38 aj_u4_x1 - 82 aj_u5_x1 - 83 aj_u6_x1 - 82 aj_u7_x1 - 32 aj_u8_x1
     + 83 a0_u0 + 82 a0_u1 + 32 a0_u2 >= 0
 c7: a0_u0 + a0_u1 + a0_u2 = 1
 c8: a1_u0_x0 + a1_u1_x0 + a1_u2_x0 = 1
 c9: aj_u0_x0 + aj_u1_x0 + aj_u2_x0 + aj_u3_x0 + aj_u4_x0 + aj_u5_x0 + aj_u6_x0
     + aj_u7_x0 + aj_u8_x0 = 1
 c10: a1_u0_x1 + a1_u1_x1 + a1_u2_x1 = 1
 c11: aj_u0_x1 + aj_u1_x1 + aj_u2_x1 + aj_u3_x1 + aj_u4_x1 + aj_u5_x1 + aj_u6_x1
      + aj_u7_x1 + aj_u8_x1 = 1
 c12: aj_u0_x0 + aj_u1_x0 + aj_u2_x0 - a0_u0 = 0
 c13: aj_u3_x0 + aj_u4_x0 + aj_u5_x0 - a0_u1 = 0
 c14: aj_u6_x0 + aj_u7_x0 + aj_u8_x0 - a0_u2 = 0
 c15: aj_u0_x1 + aj_u1_x1 + aj_u2_x1 - a0_u0 = 0
 c16: aj_u3_x1 + aj_u4_x1 + aj_u5_x1 - a0_u1 = 0
 c17: aj_u6_x1 + aj_u7_x1 + aj_u8_x1 - a0_u2 = 0
 c18: aj_u0_x0 + aj_u3_x0 + aj_u6_x0 - a1_u0_x0 = 0
 c19: aj_u1_x0 + aj_u4_x0 + aj_u7_x0 - a1_u1_x0 = 0
 c20: aj_u2_x0 + aj_u5_x0 + aj_u8_x0 - a1_u2_x0 = 0
 c21: aj_u0_x1 + aj_u3_x1 + aj_u6_x1 - a1_u0_x1 = 0
 c22: aj_u1_x1 + aj_u4_x1 + aj_u7_x1 - a1_u1_x1 = 0
 c23: aj_u2_x1 + aj_u5_x1 + aj_u8_x1 - a1_u2_x1 = 0

Bounds
       a0_u0 <= 1
       a0_u1 <= 1
       a0_u2 <= 1
 0 <= a1_u0_x0 <= 1
 0 <= a1_u1_x0 <= 1
 0 <= a1_u2_x0 <= 1
       aj_u0_x0 <= 1
       aj_u1_x0 <= 1
       aj_u2_x0 <= 1
       aj_u3_x0 <= 1
       aj_u4_x0 <= 1
       aj_u5_x0 <= 1
       aj_u6_x0 <= 1
       aj_u7_x0 <= 1
       aj_u8_x0 <= 1
 0 <= a1_u0_x1 <= 1
 0 <= a1_u1_x1 <= 1
 0 <= a1_u2_x1 <= 1
       aj_u0_x1 <= 1
       aj_u1_x1 <= 1
       aj_u2_x1 <= 1
       aj_u3_x1 <= 1
       aj_u4_x1 <= 1
       aj_u5_x1 <= 1
       aj_u6_x1 <= 1
       aj_u7_x1 <= 1
       aj_u8_x1 <= 1

Binaries
 a1_u0_x0 a1_u1_x0 a1_u2_x0 a1_u0_x1 a1_u1_x1 a1_u2_x1
End
